n_res = 4;
rcap = [14, 17, 103, 102];
rtype = [1, 1, 2, 2];
n_tasks = 16;
modes = [ {1, 2}, {3, 4}, {5, 6}, {7, 8}, {9, 10}, {11, 12}, {13, 14}, {15, 16}, {17, 18}, {19, 20}, {21, 22}, {23, 24}, {25, 26}, {27, 28}, {29, 30}, {31, 32} ];
succ = [ {6, 8}, {4, 7, 10}, {5, 7, 11}, {5, 9, 11}, {15}, {7, 10, 12}, {15}, {9, 10, 14}, {13, 15}, {16}, {14, 16}, {13, 14}, {16}, {}, {}, {} ];
n_opt = 32;
dur = [3, 5, 8, 9, 5, 9, 3, 7, 5, 6, 5, 7, 4, 5, 7, 10, 4, 4, 5, 7, 5, 10, 5, 9, 1, 7, 6, 7, 1, 2, 4, 8];
rreq = [|  0,  4,  0,  0,  6,  6,  0,  7,  0,  5,  0,  2,  0,  4, 10,  4,  6,  0,  2,  2,  5,  0,  0,  0,  0,  2,  2,  0,  7,  4,  9,  0
        |  3,  0,  5,  1,  0,  0,  7,  0,  3,  0,  5,  0,  5,  0,  0,  0,  0,  9,  0,  0,  0,  7,  9,  1,  2,  0,  0,  2,  0,  0,  0,  7
        |  4,  3,  7,  5,  7,  7,  6,  4,  7,  5,  6,  1,  6,  5,  5,  4,  9,  9,  9,  7,  9,  9,  8,  6,  5,  5,  7,  4,  8,  7,  6,  5
        |  7,  1,  9,  5,  4,  1,  7,  7,  6,  6,  9,  6,  6,  3,  9,  7,  4,  4,  3,  3, 10,  6,  4,  4,  9,  8,  8,  7,  7,  4,  8,  4 |];
